SAT
1 -2 -3 -310 -514 4 -5 -6 -193 -547 7 -8 -9 -274 -397 10 -11 -12 -421 -499 13 -14 -15 -280 -391 16 -17 -18 -403 19 -20 -21 -154 -304 22 -23 -24 -493 -517 25 -26 -27 -190 -355 28 -29 -30 -562 -580 31 -32 -33 -379 -400 34 -35 -36 -145 -175 37 -38 -39 -103 -331 40 -41 -42 -220 -505 43 -44 -45 -244 -445 46 -47 -48 -205 -256 49 -50 -51 -136 -427 52 -53 -54 -121 -424 55 -56 -57 -79 58 -59 -60 -295 -454 61 -62 -63 -163 -409 64 -65 -66 -238 67 -68 -69 -91 -259 70 -71 -72 -361 -502 73 -74 -75 -388 76 -77 -78 -508 80 -81 -368 82 -83 -84 -202 85 -86 -87 -223 -337 88 -89 -90 -316 92 -93 94 -95 -96 -535 -538 97 -98 -99 -148 -577 100 -101 -102 -283 -448 104 -105 -260 261 106 -107 -108 -151 -166 109 -110 -111 -127 -250 112 -113 -114 -376 115 -116 -117 -178 -277 118 -119 -120 122 -123 -281 282 124 -125 -126 -430 128 -129 -158 130 -131 -132 -544 133 -134 -135 -289 -325 137 -138 139 -140 -141 -526 142 -143 -144 -412 146 -147 -185 149 -150 -167 168 152 -153 -287 155 -156 157 -159 -307 160 -161 -162 -217 164 -165 -320 169 -170 -171 -226 172 -173 -174 176 -177 -245 246 179 -180 -416 181 -182 -183 -235 -589 184 -186 187 -188 -189 -406 -496 191 -192 -251 252 194 -195 -209 196 -197 -198 -253 -457 199 -200 -201 -556 203 -204 206 -207 208 -210 -319 321 211 -212 -213 -265 -559 214 -215 -216 -328 -571 218 -219 -377 378 221 -222 -590 591 224 -225 227 -228 -467 229 -230 -231 232 -233 -234 -349 236 -237 -569 239 -240 241 -242 -243 -340 -469 247 -248 -249 254 -255 257 -258 -437 262 -263 -264 -385 266 -267 -347 268 -269 -270 -466 468 -475 271 -272 -273 -487 275 -276 278 -279 284 -285 286 -288 290 -291 -425 426 292 -293 -294 -529 296 -297 298 -299 -300 301 -302 -303 -382 -574 305 -306 -473 308 -309 -359 311 -312 313 -314 -315 -358 360 317 -318 -446 447 322 -323 -324 -460 326 -327 329 -330 -548 549 332 -333 334 -335 -336 -511 -583 338 -339 341 -342 -380 381 343 -344 -345 346 -348 -418 350 -351 352 -353 -354 -553 356 -357 -599 362 -363 364 -365 -366 -394 367 -369 370 -371 -372 -472 474 373 -374 -375 -550 383 -384 -554 555 386 -387 -470 471 389 -390 -530 531 392 -393 395 -396 -557 558 398 -399 401 -402 404 -405 -410 411 407 -408 413 -414 415 -417 -541 419 -420 -440 422 -423 428 -429 431 -432 433 -434 -435 -439 441 -592 436 -438 442 -443 -444 449 -450 451 -452 -453 -598 600 455 -456 458 -459 -584 585 461 -462 463 -464 -465 -478 476 -477 479 -480 481 -482 -483 -520 -586 484 -485 -486 488 -489 -581 582 490 -491 -492 -595 494 -495 497 -498 500 -501 503 -504 506 -507 509 -510 512 -513 515 -516 -587 588 518 -519 521 -522 -596 597 523 -524 -525 -532 527 -528 533 -534 -566 536 -537 539 -540 542 -543 545 -546 551 -552 560 -561 563 -564 565 -567 568 -570 572 -573 575 -576 578 -579 593 -594 0